32	0

0	2	2	3
8	1	4
7	1	4
9	1	5
3	1	6
7	2	7	8
4	1	9
3	1	9
6	1	10
1	1	11
9	1	12
7	2	13	14
6	1	15
9	1	16
7	1	16
1	2	17	18
9	1	19
6	1	19
3	1	20
4	2	21	22
6	2	23	24
10	2	23	24
7	1	25
9	2	26	27
10	2	26	27
3	1	28
5	1	28
2	1	29
3	1	30
6	1	31
3	1	32
0	0
